6404
9862
6127
1839
9985
7486
6585
8176
8534
2839
2978
7633
408
1194
9074
4399
1103
5029
5662
5751
8118
8421
9147
2708
4509
5842
1108
9264
4410
3135
6192
4862
4877
6845
4525
922
5227
458
2527
2573
601
9200
6701
544
9573
5659
5948
4226
5857
8486
1432
